%nproc=6
# opt(tight) b3lyp/sto-3g

c08h18

0 1
 C      0.45188000     -1.49275000     -2.19358000
 C      0.87075000     -2.82729000     -1.59771000
 C      2.12071000     -2.68537000     -0.72956000
 C      2.53872000     -4.02996000     -0.13211000
 C      3.78962000     -3.88805000      0.73671000
 C      4.20763000     -5.23263000      1.33415000
 C      5.45760000     -5.09072000      2.20229000
 C      5.87649000     -6.42527000      2.79814000
 H      0.22418000     -0.76612000     -1.40713000
 H     -0.44359000     -1.61744000     -2.81043000
 H      1.24454000     -1.07898000     -2.82510000
 H      0.04491000     -3.22871000     -0.99891000
 H      1.05964000     -3.53985000     -2.40906000
 H      1.92776000     -1.96851000      0.07788000
 H      2.94245000     -2.27962000     -1.33221000
 H      2.73175000     -4.74662000     -0.93966000
 H      1.71695000     -4.43547000      0.47060000
 H      3.59659000     -3.17139000      1.54427000
 H      4.61139000     -3.48252000      0.13401000
 H      4.40058000     -5.94949000      0.52671000
 H      3.38590000     -5.63839000      1.93680000
 H      6.28343000     -4.68928000      1.60349000
 H      5.26871000     -4.37818000      3.01366000
 H      6.10418000     -7.15188000      2.01167000
 H      6.77196000     -6.30058000      3.41499000
 H      5.08383000     -6.83905000      3.42965000


