%nproc=6
# opt(tight) b3lyp/sto-3g

c10h12

0 1
 C      1.21705000     -0.22528000     -0.33553000
 C      1.77984000      0.59621000     -1.22487000
 C      3.24639000      0.76885000     -1.27723000
 C      3.80688000      1.59424000     -2.17130000
 C      5.27366000      1.76772000     -2.22463000
 C      5.83319000      2.59338000     -3.11912000
 C      7.29980000      2.76768000     -3.17342000
 C      7.85835000      3.59357000     -4.06830000
 C      9.32451000      3.76824000     -4.12309000
 C      9.88434000      4.59049000     -5.01366000
 H      1.82382000     -0.78554000      0.36984000
 H      0.13820000     -0.34007000     -0.31107000
 H      1.14462000      1.14253000     -1.91703000
 H      3.87441000      0.21799000     -0.58057000
 H      3.17817000      2.14472000     -2.86762000
 H      5.90268000      1.21740000     -1.52847000
 H      5.20384000      3.14352000     -3.81512000
 H      7.92965000      2.21779000     -2.47765000
 H      7.22870000      4.14357000     -4.76418000
 H      9.96177000      3.22303000     -3.43196000
 H      9.27529000      5.14962000     -5.71800000
 H     10.96292000      4.70709000     -5.04027000


