%nproc=6
# opt(tight) b3lyp/sto-3g

c10h22

0 1
 C      0.37536000     -1.41609000     -2.26497000
 C      0.78524000     -2.75343000     -1.66919000
 C      2.03703000     -2.62044000     -0.80223000
 C      2.44653000     -3.96835000     -0.20646000
 C      3.69901000     -3.83612000      0.66159000
 C      4.10982000     -5.18523000      1.25384000
 C      5.36203000     -5.05406000      2.12239000
 C      5.77480000     -6.40444000      2.71036000
 C      7.02569000     -6.27398000      3.57892000
 C      7.44084000     -7.61512000      4.16250000
 H     -0.52172000     -1.53450000     -2.88072000
 H      1.17023000     -1.00831000     -2.89761000
 H      0.15388000     -0.68756000     -1.47851000
 H      0.96820000     -3.46747000     -2.48061000
 H     -0.04286000     -3.14883000     -1.06953000
 H      1.84972000     -1.90296000      0.00599000
 H      2.86085000     -2.21976000     -1.40541000
 H      2.63407000     -4.68535000     -1.01503000
 H      1.62255000     -4.36909000      0.39641000
 H      3.51075000     -3.12109000      1.47171000
 H      4.52251000     -3.43328000      0.05947000
 H      4.29822000     -5.89984000      0.44336000
 H      3.28617000     -5.58846000      1.85551000
 H      5.17265000     -4.34191000      2.93479000
 H      6.18502000     -4.64809000      1.52167000
 H      5.96446000     -7.11635000      1.89775000
 H      4.95167000     -6.81112000      3.31047000
 H      6.83935000     -5.56814000      4.39671000
 H      7.85242000     -5.86974000      2.98328000
 H      6.64706000     -8.03250000      4.79022000
 H      8.33671000     -7.49867000      4.78036000
 H      7.66644000     -8.33510000      3.36934000


