%nproc=6
# opt(tight) b3lyp/sto-3g

c12h14

0 1
 C      1.21513000     -0.22555000     -0.33543000
 C      1.78020000      0.59526000     -1.22375000
 C      3.24610000      0.76981000     -1.27837000
 C      3.80880000      1.59452000     -2.17143000
 C      5.27513000      1.76954000     -2.22656000
 C      5.83781000      2.59427000     -3.11967000
 C      7.30414000      2.76929000     -3.17482000
 C      7.86680000      3.59401000     -4.06796000
 C      9.33314000      3.76904000     -4.12314000
 C      9.89579000      4.59372000     -5.01626000
 C     11.36168000      4.76829000     -5.07097000
 C     11.92669000      5.58906000     -5.95937000
 H      1.81655000     -0.78841000      0.37239000
 H      0.13614000     -0.33931000     -0.31216000
 H      1.14330000      1.14068000     -1.91504000
 H      3.87311000      0.21847000     -0.58125000
 H      3.18100000      2.14545000     -2.86816000
 H      5.90279000      1.21855000     -1.52977000
 H      5.21014000      3.14525000     -3.81646000
 H      7.93182000      2.21832000     -2.47804000
 H      7.23913000      4.14497000     -4.76475000
 H      9.96097000      3.21815000     -3.42641000
 H      9.26874000      5.14501000     -5.71338000
 H     11.99862000      4.22292000     -4.37968000
 H     13.00568000      5.70284000     -5.98270000
 H     11.32521000      6.15186000     -6.66718000


