%nproc=6
# opt(tight) b3lyp/sto-3g

c16h18

0 1
 C      1.27476000     -0.29985000     -0.24386000
 C      1.80511000      0.52960000     -1.14564000
 C      3.26708000      0.72783000     -1.22795000
 C      3.79445000      1.56123000     -2.13456000
 C      5.25648000      1.76102000     -2.21867000
 C      5.78147000      2.59499000     -3.12618000
 C      7.24298000      2.79711000     -3.21302000
 C      7.76443000      3.63190000     -4.12184000
 C      9.22526000      3.83702000     -4.21221000
 C      9.74272000      4.67275000     -5.12251000
 C     11.20285000      4.88086000     -5.21639000
 C     11.71677000      5.71742000     -6.12800000
 C     13.17638000      5.92787000     -6.22464000
 C     13.68793000      6.76495000     -7.13709000
 C     15.14695000      6.97640000     -7.23493000
 C     15.65959000      7.80997000     -8.14324000
 H      0.19879000     -0.43336000     -0.19753000
 H      1.90528000     -0.84807000      0.45003000
 H      1.14655000      1.06338000     -1.82570000
 H      3.91878000      0.18951000     -0.54335000
 H      3.14176000      2.09903000     -2.81867000
 H      5.91001000      1.22371000     -1.53504000
 H      5.12700000      3.13181000     -3.80934000
 H      7.89883000      2.26106000     -2.53062000
 H      7.10739000      4.16731000     -4.80364000
 H      9.88386000      3.30249000     -3.53127000
 H      9.08293000      5.20664000     -5.80284000
 H     11.86403000      4.34775000     -4.53683000
 H     11.05467000      6.25003000     -6.80709000
 H     13.83948000      5.39584000     -5.54612000
 H     13.02475000      7.29698000     -7.81562000
 H     15.81762000      6.44945000     -6.56150000
 H     15.01629000      8.35150000     -8.83072000
 H     16.73362000      7.95375000     -8.20160000


