%nproc=6
# opt(tight) b3lyp/sto-3g

c18h20

0 1
 C      1.27360000     -0.33518000     -0.21943000
 C      1.79307000      0.51511000     -1.10809000
 C      3.25573000      0.68442000     -1.23173000
 C      3.77273000      1.54070000     -2.12297000
 C      5.23555000      1.71260000     -2.24563000
 C      5.75150000      2.57410000     -3.13247000
 C      7.21397000      2.75061000     -3.25251000
 C      7.72825000      3.62055000     -4.13206000
 C      9.19020000      3.80363000     -4.24824000
 C      9.70236000      4.68422000     -5.11841000
 C     11.16369000      4.87477000     -5.23003000
 C     11.67362000      5.76640000     -6.09022000
 C     13.13434000      5.96394000     -6.19746000
 C     13.64235000      6.86500000     -7.04894000
 C     15.10260000      7.06779000     -7.15281000
 C     15.60936000      7.97505000     -7.99839000
 C     17.06904000      8.18031000     -8.10019000
 C     17.57738000      9.08605000     -8.93915000
 H      0.19695000     -0.44677000     -0.14172000
 H      1.91375000     -0.92200000      0.43284000
 H      1.12515000      1.08796000     -1.74586000
 H      3.91662000      0.10656000     -0.58951000
 H      3.11119000      2.11902000     -2.76410000
 H      5.89737000      1.13353000     -1.60550000
 H      5.08929000      3.15446000     -3.77105000
 H      7.87676000      2.16910000     -2.61561000
 H      7.06491000      4.20384000     -4.76678000
 H      9.85426000      3.21885000     -3.61567000
 H      9.03767000      5.27101000     -5.74846000
 H     11.82912000      4.28638000     -4.60227000
 H     11.00758000      6.35668000     -6.71558000
 H     13.80101000      5.37225000     -5.57414000
 H     12.97521000      7.45816000     -7.67039000
 H     15.77023000      6.47368000     -6.53279000
 H     14.94191000      8.57031000     -8.61756000
 H     17.74376000      7.58984000     -7.48611000
 H     16.93007000      9.69246000     -9.56597000
 H     18.65195000      9.22433000     -9.00094000


