%pal nprocs 2 end
%maxcore 1000
! b3lyp TIGHTSCF
! cc-pvdz def2/J RIJCOSX
! Opt

%geom
maxiter 60
TolE 1e-4
TolRMSG 2e-3
TolMaxG 3e-3
TolRMSD 2e-2
TolMaxD 3e-2
end

*xyz 0 1
C 2.6885 -0.4657 -0.174
C 1.6876 -1.238 0.2659
C 0.3196 -0.8377 0.5136
C -0.2034 0.3882 0.3507
C -1.6268 0.7425 0.6656
C -2.6722 0.0618 -0.2025
O -2.4564 -0.7904 -1.0578
H 3.6768 -0.8883 -0.327
H 1.8967 -2.2897 0.4602
H -0.3245 -1.6421 0.8694
H -1.851 0.5081 1.7121
H -1.7603 1.823 0.5394
H -3.7081 0.3868 -0.0013
H 2.5663 0.5872 -0.3985
H 0.4137 1.2049 -0.012
*

