%pal nprocs 2 end
%maxcore 1000
! b3lyp TIGHTSCF
! cc-pvdz def2/J RIJCOSX
! Opt

%geom
maxiter 60
TolE 1e-4
TolRMSG 2e-3
TolMaxG 3e-3
TolRMSD 2e-2
TolMaxD 3e-2
end

*xyz 0 1
C 0.7595 1.2584 -0.1393
C -0.1618 0.3931 0.3042
C -1.5538 0.7717 0.7111
C -2.6144 0.0802 -0.1261
O -2.4115 -0.8198 -0.9353
H 0.5566 2.3208 -0.2291
H -1.7221 0.4972 1.7574
H -1.7143 1.8511 0.6139
H -3.6444 0.4292 0.0637
H 1.7466 0.9117 -0.4316
H 0.093 -0.6643 0.3614
*

