%pal nprocs 2 end
%maxcore 1000
! b3lyp TIGHTSCF
! cc-pvdz def2/J RIJCOSX
! Opt

%geom
maxiter 60
TolE 1e-4
TolRMSG 2e-3
TolMaxG 3e-3
TolRMSD 2e-2
TolMaxD 3e-2
end

*xyz 0 1
C 0.7391 1.4325 -0.1234
C 1.6117 -1.4384 0.2758
C 0.3833 -0.9446 0.4783
C -0.0526 0.4329 0.2985
C -1.4952 0.693 0.6484
H 0.3581 2.4437 -0.2301
H 1.8108 -2.492 0.4464
H -0.3853 -1.6408 0.8149
H -1.6891 0.4399 1.6965
H -1.7703 1.7441 0.5077
H 1.7828 1.2892 -0.3781
H 2.4458 -0.8325 -0.0575
H -2.1584 0.0923 0.0162
*

