%pal nprocs 2 end
%maxcore 1000
! b3lyp TIGHTSCF
! cc-pvdz def2/J RIJCOSX
! Opt

%geom
maxiter 60
TolE 1e-4
TolRMSG 2e-3
TolMaxG 3e-3
TolRMSD 2e-2
TolMaxD 3e-2
end

*xyz 0 1
C 0.7348 1.4131 -0.1232
C 1.5655 -1.4699 0.1998
C 0.3546 -0.9593 0.4602
C -0.0689 0.4293 0.3186
C -1.4934 0.7382 0.7283
C -2.5706 0.0905 -0.1281
O -2.3915 -0.7083 -1.0412
H 0.3842 2.4373 -0.2072
H 1.7474 -2.5322 0.3311
H -0.4132 -1.658 0.7939
H -1.6593 0.4184 1.7643
H -1.6829 1.8183 0.6963
H -3.5998 0.3854 0.1445
H 1.7622 1.2427 -0.4249
H 2.3998 -0.8746 -0.1504
*

