%pal nprocs 2 end
%maxcore 1000
! b3lyp TIGHTSCF
! cc-pvdz def2/J RIJCOSX
! Opt

%geom
maxiter 60
TolE 1e-4
TolRMSG 2e-3
TolMaxG 3e-3
TolRMSD 2e-2
TolMaxD 3e-2
end

*xyz 0 1
C 0.7809 1.3007 -0.1378
C 2.1032 0.9548 -0.4158
C 2.5364 -0.3569 -0.2225
C 1.645 -1.3246 0.2408
C 0.3225 -0.9788 0.5182
C -0.1077 0.3354 0.3358
H 0.4441 2.3232 -0.2859
H 2.7965 1.7077 -0.781
H 3.5671 -0.6261 -0.4375
H 1.9813 -2.3476 0.387
H -0.3715 -1.7323 0.8811
H -1.1372 0.6056 0.5551
*

