%nproc=6
# opt(tight) b3lyp/sto-3g

c02h06

0 1
 C      1.02536000      0.17111000     -0.05697000
 C      2.00858000     -0.82442000      0.53478000
 H      1.38999000      1.20630000      0.11147000
 H      0.03273000      0.05208000      0.42617000
 H      0.92199000     -0.00482000     -1.14845000
 H      2.11163000     -0.64837000      1.62625000
 H      1.64362000     -1.85949000      0.36634000
 H      3.00145000     -0.70582000      0.05197000


