%nproc=6
# opt(tight) b3lyp/sto-3g

c03h08

0 1
 C      1.03330000      0.17151000     -0.06031000
 C      2.02333000     -0.82697000      0.53175000
 C      3.40001000     -0.68989000     -0.11140000
 H      1.38546000      1.21135000      0.10959000
 H      0.04330000      0.04722000      0.42691000
 H      0.91699000     -0.00097000     -1.15158000
 H      2.11144000     -0.64978000      1.62536000
 H      1.64427000     -1.85874000      0.36769000
 H      3.33661000     -0.88162000     -1.20382000
 H      3.80508000      0.33070000      0.05735000
 H      4.09640000     -1.42796000      0.33940000


