%nproc=6
# opt(tight) b3lyp/sto-3g

c04h06

0 1
 C      1.04054000      0.16815000     -0.05977000
 C      2.02712000     -0.83222000      0.53539000
 C      3.41044000     -0.69520000     -0.11017000
 C      4.39702000     -1.69557000      0.48499000
 H      1.39465000      1.20734000      0.10999000
 H      0.04906000      0.04676000      0.42521000
 H      0.92620000     -0.00494000     -1.15114000
 H      2.10569000     -0.65098000      1.62966000
 H      1.63816000     -1.86088000      0.37102000
 H      3.33187000     -0.87643000     -1.20444000
 H      3.79940000      0.33346000      0.05421000
 H      4.04291000     -2.73476000      0.31523000
 H      4.51136000     -1.52248000      1.57636000
 H      5.38850000     -1.57418000      0.00001000


