%nproc=6
# opt(tight) b3lyp/sto-3g

c06h14

0 1
 C      0.38370861     -1.42904125     -2.25667078
 C      0.81941689     -2.79075246     -1.64271089
 C      2.09531063     -2.66063267     -0.75330692
 C      2.53154263     -4.02687540     -0.13797034
 C      3.80743613     -3.89675898      0.75143428
 C      4.24313976     -5.25847318      1.36539140
 H      0.15817623     -0.69938300     -1.46386281
 H     -0.51701479     -1.55437044     -2.87716500
 H      1.18355069     -1.01376823     -2.88881910
 H     -0.00712696     -3.19914371     -1.03520466
 H      1.01465613     -3.51242750     -2.45516935
 H      1.90065991     -1.93952640      0.05983518
 H      2.92256672     -2.25284817     -1.36030147
 H      2.72619288     -4.74798132     -0.95111286
 H      1.70428602     -4.43465960      0.46902372
 H      3.61219823     -3.17508511      1.56389409
 H      4.63398143     -3.48836877      0.14392936
 H      4.46867028     -5.98813000      0.57258158
 H      3.44329556     -5.67374500      1.99753779
 H      5.14386301     -5.13314881      1.98588679


