%nproc=6
# opt(tight) b3lyp/sto-3g

c08h18

0 1
 C      0.37730182     -1.42802221     -2.26150335
 C      0.81339965     -2.78951161     -1.64731264
 C      2.08938663     -2.65853555     -0.75802902
 C      2.52619695     -4.02457173     -0.14232275
 C      3.80215378     -3.89343748      0.74690436
 C      4.23896415     -5.25947366      1.36261056
 C      5.51495100     -5.12849757      2.25189436
 C      5.95104907     -6.48998708      2.86608468
 H      0.15175549     -0.69833416     -1.46872363
 H     -0.52342573     -1.55353271     -2.88196185
 H      1.17711984     -1.01271450     -2.89366323
 H     -0.01287198     -3.19807049     -1.03956376
 H      1.00892194     -3.51135604     -2.45954138
 H      1.89446323     -1.93727999      0.05489422
 H      2.91637984     -2.25060284     -1.36525390
 H      2.72075905     -4.74556653     -0.95557639
 H      1.69883057     -4.43224006      0.46458813
 H      3.60759163     -3.17244273      1.56015804
 H      4.62952013     -3.48576908      0.13999350
 H      4.43388770     -5.98072916      0.54968730
 H      3.41197091     -5.66740648      1.96983533
 H      6.34122261     -4.71993831      1.64414571
 H      5.31942846     -4.40665345      3.06412332
 H      6.17659597     -7.21967472      2.07330474
 H      6.85177633     -6.36447653      3.48654359
 H      5.15123094     -6.90529534      3.49824406


