%nproc=6
# opt(tight) b3lyp/sto-3g

c10h22

0 1
 C      0.27684319     -1.33213053     -2.34670948
 C      0.70605483     -2.69842168     -1.73836262
 C      1.98336601     -2.57775099     -0.84948121
 C      2.41343231     -3.94850045     -0.23954066
 C      3.69074342     -3.82754088      0.64927517
 C      4.12080147     -5.19842295      1.25924450
 C      5.39811453     -5.07746332      2.14805753
 C      5.82817592     -6.44821041      2.75800683
 C      7.10549025     -6.32753901      3.64688364
 C      7.53469745     -7.69382742      4.25523974
 H     -0.62497733     -1.45021308     -2.96703783
 H      1.07847917     -0.91857527     -2.97771496
 H      0.05581916     -0.60448902     -1.55078086
 H      0.89720047     -3.41803357     -2.55360479
 H     -0.12191715     -3.10504552     -1.13163601
 H      1.79280474     -1.85872093     -0.03356304
 H      2.81204093     -2.17174559     -1.45569719
 H      2.60364770     -4.66727119     -1.05578096
 H      1.58439673     -4.35424086      0.36637702
 H      3.50050627     -3.10877118      1.46550158
 H      4.51976038     -3.42180819      0.04333996
 H      4.31103648     -5.91719325      0.44301811
 H      3.29178552     -5.60415478      1.86518169
 H      5.20790376     -4.35868604      2.96429315
 H      6.22715095     -4.67173089      1.54213566
 H      6.01873126     -7.16724734      1.94209329
 H      4.99950101     -6.85420751      3.36422837
 H      6.91435067     -5.60791966      4.46212065
 H      7.93346232     -5.92092407      3.04015120
 H      6.73305105     -8.10738702      4.88622917
 H      8.43650468     -7.57573932      4.87558635
 H      7.75574186     -8.42146806      3.45931601


