%nproc=16
# opt(calcall,tight) b3lyp/sto-3g

c16h18

0 1
 C      1.28675000     -0.31221000     -0.22841000
 C      1.84006000      0.51364000     -1.12376000
 C      3.26546000      0.72401000     -1.22370000
 C      3.81645000      1.55305000     -2.12296000
 C      5.24395000      1.76510000     -2.22462000
 C      5.79341000      2.59459000     -3.12455000
 C      7.22059000      2.80783000     -3.22762000
 C      7.76867000      3.63768000     -4.12810000
 C      9.19568000      3.85154000     -4.23189000
 C      9.74376000      4.68140000     -5.13238000
 C     11.17094000      4.89459000     -5.23540000
 C     11.72066000      5.72404000     -6.13525000
 C     13.14826000      5.93562000     -6.23637000
 C     13.70043000      6.76439000     -7.13520000
 C     15.12617000      6.97333000     -7.23346000
 C     15.68215000      7.79866000     -8.12795000
 H      0.20933000     -0.43945000     -0.18943000
 H      1.88062000     -0.87814000      0.48221000
 H      1.19468000      1.05566000     -1.81200000
 H      3.89747000      0.17487000     -0.52861000
 H      3.18262000      2.10124000     -2.81714000
 H      5.87750000      1.21675000     -1.53028000
 H      5.15883000      3.14241000     -3.81839000
 H      7.85545000      2.26015000     -2.53392000
 H      7.13343000      4.18516000     -4.82161000
 H      9.83092000      3.30405000     -3.53837000
 H      9.10894000      5.22908000     -5.82609000
 H     11.80540000      4.34670000     -4.54149000
 H     11.08745000      6.27255000     -6.82974000
 H     13.78143000      5.38708000     -5.54184000
 H     13.06952000      7.31408000     -7.83082000
 H     15.77007000      6.43050000     -6.54443000
 H     15.09002000      8.36543000     -8.83936000
 H     16.75979000      7.92448000     -8.16526000


