%nproc=6
# opt(tight) b3lyp/sto-3g

c18h20

0 1
 C      1.09864188     -0.49653642     -0.19721665
 C      1.66695144      0.37589315     -1.05460450
 C      3.12317936      0.57815756     -1.18384268
 C      3.69245885      1.46307787     -2.05388003
 C      5.13661487      1.66741147     -2.18585754
 C      5.70546181      2.55589226     -3.05953662
 C      7.14566071      2.76097714     -3.19248325
 C      7.71437498      3.65080297     -4.06753443
 C      9.15314770      3.85619773     -4.20086935
 C      9.72181051      4.74639524     -5.07629805
 C     11.16058305      4.95179196     -5.20963197
 C     11.72929600      5.84162136     -6.08468040
 C     13.16949441      6.04671091     -6.21762517
 C     13.73833888      6.93519847     -7.09129899
 C     15.18249406      7.13954043     -7.22327249
 C     15.75177021      8.02446975     -8.09330289
 C     17.20799724      8.22674170     -8.22253890
 C     17.77630291      9.09918259     -9.07991781
 H      0.01108706     -0.61728247     -0.13151817
 H      1.70191444     -1.12278404      0.47132641
 H      1.03155928      0.98891602     -1.71137987
 H      3.76756678     -0.02987242     -0.53167039
 H      3.04430506      2.06922356     -2.70433320
 H      5.78640785      1.06225148     -1.53632033
 H      5.05443114      3.16042346     -3.70849749
 H      7.79732360      2.15681532     -2.54386371
 H      7.06224887      4.25472709     -4.71593481
 H      9.80545138      3.25237697     -3.55256352
 H      9.06950660      5.35021702     -5.72460270
 H     11.81270981      4.34786833     -4.56123179
 H     11.07763203      6.44578431     -6.73329781
 H     13.82052652      5.44218000     -5.56866546
 H     13.08854407      7.54036004     -7.74083291
 H     15.83064998      6.53339377     -6.57282235
 H     15.10738044      8.63250131     -8.74547135
 H     17.84339185      7.61371974     -7.56576505
 H     17.17302745      9.72543506     -9.74845370
 H     18.86385692      9.21993931     -9.14561009


